# Solution for model r10_t27_m1_8 Batch Number: 1
# Finished Task: 25 / 27
# Makespan: 658.0, Total Distance: 336.0, Total Time: 39.3006
# R O S F Batch
0 0 22 0.0 0.0 -1
1 1 12 0.0 0.0 -1
2 2 -1 0.0 0.0 -1
3 3 31 0.0 0.0 -1
4 4 30 0.0 0.0 -1
5 5 23 0.0 0.0 -1
6 6 10 0.0 0.0 -1
7 7 -1 0.0 0.0 -1
8 8 21 0.0 0.0 -1
9 9 15 0.0 0.0 -1
10 6 28 415.0 450.0 0
11 4 -1 620.0 658.0 0
12 1 32 256.0 291.0 0
13 4 34 533.0 565.0 0
14 -1 -1 -1.0 -1.0 0
15 9 35 200.0 229.0 0
16 0 29 418.0 438.0 0
17 0 -1 632.0 658.0 0
18 8 -1 479.0 512.0 0
19 9 33 599.0 624.0 0
20 6 -1 567.0 603.0 0
21 8 18 369.0 402.0 0
22 0 16 360.0 383.0 0
23 5 -1 601.0 628.0 0
24 1 -1 574.0 596.0 0
25 1 24 512.0 538.0 0
26 3 -1 538.0 574.0 0
27 6 20 541.0 567.0 0
28 6 27 477.0 512.0 0
29 0 17 450.0 487.0 0
30 4 13 450.0 489.0 0
31 3 26 396.0 418.0 0
32 1 25 402.0 439.0 0
33 9 -1 635.0 658.0 0
34 4 11 565.0 596.0 0
35 9 19 387.0 419.0 0
36 -1 -1 -1.0 -1.0 0
